c 
c U(n,d) graph
c graph gen seed     : 27337
c number of vertices : 30
c max number of edges: 500
c Euclidean distance : 0.400000
c data structure     : sparse
c
c           Graph Stats
c number of vertices  : 30
c nonisolated vertices: 30
c number of edges     : 134
c edge density        : 0.308046
c max degree          : 16
c avg degree          : 8.93
c min degree          : 3
p col 30 134
e 1 29
e 1 28
e 1 25
e 1 23
e 1 22
e 1 12
e 1 8
e 1 3
e 1 2
e 2 29
e 2 28
e 2 26
e 2 25
e 2 23
e 2 22
e 2 21
e 2 18
e 2 14
e 2 10
e 2 8
e 2 7
e 2 6
e 2 5
e 2 3
e 3 28
e 3 23
e 3 22
e 3 18
e 3 14
e 3 7
e 4 24
e 4 20
e 4 15
e 4 13
e 4 11
e 5 30
e 5 26
e 5 24
e 5 23
e 5 21
e 5 20
e 5 13
e 5 11
e 5 10
e 5 7
e 5 6
e 6 30
e 6 27
e 6 26
e 6 23
e 6 21
e 6 13
e 6 10
e 7 28
e 7 23
e 7 22
e 7 21
e 7 19
e 7 18
e 7 16
e 7 14
e 7 10
e 7 9
e 8 29
e 8 28
e 8 27
e 8 25
e 8 23
e 8 17
e 8 12
e 9 19
e 9 18
e 9 16
e 9 14
e 10 30
e 10 26
e 10 24
e 10 23
e 10 21
e 10 20
e 10 16
e 10 13
e 10 11
e 11 30
e 11 26
e 11 24
e 11 20
e 11 15
e 11 13
e 12 29
e 12 28
e 12 27
e 12 25
e 12 17
e 13 30
e 13 26
e 13 24
e 13 21
e 13 20
e 13 15
e 14 22
e 14 19
e 14 18
e 15 24
e 15 20
e 16 19
e 17 27
e 18 28
e 18 23
e 18 22
e 18 19
e 20 30
e 20 26
e 20 24
e 21 30
e 21 28
e 21 26
e 21 23
e 22 28
e 22 25
e 22 23
e 23 29
e 23 28
e 23 26
e 23 25
e 24 30
e 24 26
e 25 29
e 25 28
e 26 30
e 26 27
e 27 30
e 27 29
e 28 29
